;; Mutation-Based Equivalence Benchmark
;; Source:     AutomatArk / instance13464.smt2
;; Mutations:  literal_char_inc
;; Status:     sat
;;
;; Original regex vs mutated regex
;; Equivalence check: unsat ⟺ L(R1) = L(R2)

(set-info :smt-lib-version 2.6)
(set-info :category "mutation")
(set-info :status sat)
(set-logic QF_S)

(declare-const x String)

;; R1: original
;; R2: mutated (literal_char_inc)
(assert
  (str.in_re x
    (re.union (re.inter (re.union (re.++ (re.union (re.++ (str.to_re "A") (re.union (str.to_re "B") (str.to_re "D") (str.to_re "H") (str.to_re "R"))) (str.to_re "BCK") (re.++ (str.to_re "B") (re.union (str.to_re "A") (str.to_re "D") (str.to_re "E") (str.to_re "F") (str.to_re "H") (re.range "K" "O") (str.to_re "R") (str.to_re "S") (str.to_re "U") (str.to_re "W"))) (str.to_re "BRD") (re.++ (str.to_re "C") (re.union (str.to_re "A") (str.to_re "E") (str.to_re "F") (str.to_re "H") (str.to_re "K") (str.to_re "L") (str.to_re "N") (str.to_re "O") (str.to_re "S") (str.to_re "T") (str.to_re "Y"))) (re.++ (str.to_re "D") (re.union (str.to_re "A") (str.to_re "E") (str.to_re "H") (str.to_re "K") (str.to_re "O") (str.to_re "R") (str.to_re "S"))) (re.++ (str.to_re "F") (re.union (str.to_re "D") (str.to_re "E") (str.to_re "H") (str.to_re "R") (str.to_re "Y"))) (re.++ (str.to_re "G") (re.union (str.to_re "H") (str.to_re "K") (str.to_re "N") (str.to_re "R") (str.to_re "U") (str.to_re "W") (str.to_re "Y"))) (re.++ (str.to_re "H") (re.union (str.to_re "H") (str.to_re "L"))) (re.++ (str.to_re "I") (re.union (str.to_re "E") (str.to_re "H"))) (str.to_re "INS") (str.to_re "KY") (re.++ (str.to_re "L") (re.union (str.to_re "A") (str.to_re "H") (str.to_re "I") (str.to_re "K") (str.to_re "L") (str.to_re "N") (str.to_re "O") (str.to_re "R") (str.to_re "T") (str.to_re "Y"))) (re.++ (str.to_re "M") (re.union (str.to_re "E") (str.to_re "H") (str.to_re "L") (str.to_re "N") (str.to_re "R") (str.to_re "T"))) (re.++ (str.to_re "N") (re.union (str.to_re "E") (str.to_re "N") (str.to_re "T"))) (str.to_re "OB") (re.++ (str.to_re "P") (re.union (str.to_re "D") (str.to_re "E") (str.to_re "H") (str.to_re "L") (str.to_re "N") (str.to_re "T") (str.to_re "W") (str.to_re "Z"))) (re.++ (str.to_re "R") (re.union (str.to_re "N") (str.to_re "O") (str.to_re "R") (str.to_re "X") (str.to_re "Y"))) (re.++ (str.to_re "S") (re.union (str.to_re "A") (str.to_re "C") (str.to_re "D") (str.to_re "E") (str.to_re "H") (str.to_re "M") (str.to_re "N") (str.to_re "O") (str.to_re "R") (str.to_re "S") (str.to_re "T") (str.to_re "U") (str.to_re "Y"))) (str.to_re "SSS") (re.++ (str.to_re "T") (re.union (str.to_re "H") (str.to_re "N") (str.to_re "O") (str.to_re "T"))) (str.to_re "UL") (re.++ (str.to_re "W") (re.union (str.to_re "A") (str.to_re "D") (str.to_re "H") (str.to_re "I") (str.to_re "K") (str.to_re "N") (str.to_re "O") (str.to_re "T") (str.to_re "Y"))) (str.to_re "YH") (re.range "A" "H") (re.range "J" "P") (str.to_re "R") (str.to_re "S") (str.to_re "T") (str.to_re "W")) (re.range "1" "9") ((_ re.loop 0 2) (re.range "0" "9"))) (re.++ (str.to_re "\u{a}") (re.range "1" "9") ((_ re.loop 0 2) (re.range "0" "9")) (re.union (re.++ (str.to_re "A") (re.union (str.to_re "B") (str.to_re "D") (str.to_re "H") (str.to_re "R"))) (str.to_re "BCK") (re.++ (str.to_re "B") (re.union (str.to_re "A") (str.to_re "D") (str.to_re "E") (str.to_re "F") (str.to_re "H") (re.range "K" "O") (str.to_re "R") (str.to_re "S") (str.to_re "U") (str.to_re "W"))) (str.to_re "BRD") (re.++ (str.to_re "C") (re.union (str.to_re "A") (str.to_re "E") (str.to_re "F") (str.to_re "H") (str.to_re "K") (str.to_re "L") (str.to_re "N") (str.to_re "O") (str.to_re "S") (str.to_re "T") (str.to_re "Y"))) (re.++ (str.to_re "D") (re.union (str.to_re "A") (str.to_re "E") (str.to_re "H") (str.to_re "K") (str.to_re "O") (str.to_re "R") (str.to_re "S"))) (re.++ (str.to_re "F") (re.union (str.to_re "D") (str.to_re "E") (str.to_re "H") (str.to_re "R") (str.to_re "Y"))) (re.++ (str.to_re "G") (re.union (str.to_re "H") (str.to_re "K") (str.to_re "N") (str.to_re "R") (str.to_re "U") (str.to_re "W") (str.to_re "Y"))) (re.++ (str.to_re "H") (re.union (str.to_re "H") (str.to_re "L"))) (re.++ (str.to_re "I") (re.union (str.to_re "E") (str.to_re "H"))) (str.to_re "INS") (str.to_re "KY") (re.++ (str.to_re "L") (re.union (str.to_re "A") (str.to_re "H") (str.to_re "I") (str.to_re "K") (str.to_re "L") (str.to_re "N") (str.to_re "O") (str.to_re "R") (str.to_re "T") (str.to_re "Y"))) (re.++ (str.to_re "M") (re.union (str.to_re "E") (str.to_re "H") (str.to_re "L") (str.to_re "N") (str.to_re "R") (str.to_re "T"))) (re.++ (str.to_re "N") (re.union (str.to_re "E") (str.to_re "N") (str.to_re "T"))) (str.to_re "OB") (re.++ (str.to_re "P") (re.union (str.to_re "D") (str.to_re "E") (str.to_re "H") (str.to_re "L") (str.to_re "N") (str.to_re "T") (str.to_re "W") (str.to_re "Z"))) (re.++ (str.to_re "R") (re.union (str.to_re "N") (str.to_re "O") (str.to_re "R") (str.to_re "X") (str.to_re "Y"))) (re.++ (str.to_re "S") (re.union (str.to_re "A") (str.to_re "C") (str.to_re "D") (str.to_re "E") (str.to_re "H") (str.to_re "M") (str.to_re "N") (str.to_re "O") (str.to_re "R") (str.to_re "S") (str.to_re "T") (str.to_re "U") (str.to_re "Y"))) (str.to_re "SSS") (re.++ (str.to_re "T") (re.union (str.to_re "H") (str.to_re "N") (str.to_re "O") (str.to_re "T"))) (str.to_re "UL") (re.++ (str.to_re "W") (re.union (str.to_re "A") (str.to_re "D") (str.to_re "H") (str.to_re "I") (str.to_re "K") (str.to_re "N") (str.to_re "O") (str.to_re "T") (str.to_re "Y"))) (str.to_re "YH") (re.range "A" "H") (re.range "J" "P") (str.to_re "R") (str.to_re "S") (str.to_re "T") (str.to_re "W")))) (re.comp (re.union (re.++ (re.union (re.++ (str.to_re "A") (re.union (str.to_re "B") (str.to_re "D") (str.to_re "H") (str.to_re "R"))) (str.to_re "BCK") (re.++ (str.to_re "B") (re.union (str.to_re "A") (str.to_re "D") (str.to_re "E") (str.to_re "F") (str.to_re "H") (re.range "K" "O") (str.to_re "R") (str.to_re "S") (str.to_re "U") (str.to_re "W"))) (str.to_re "BRD") (re.++ (str.to_re "C") (re.union (str.to_re "A") (str.to_re "E") (str.to_re "F") (str.to_re "H") (str.to_re "K") (str.to_re "L") (str.to_re "N") (str.to_re "O") (str.to_re "S") (str.to_re "T") (str.to_re "Y"))) (re.++ (str.to_re "D") (re.union (str.to_re "A") (str.to_re "E") (str.to_re "H") (str.to_re "K") (str.to_re "O") (str.to_re "R") (str.to_re "S"))) (re.++ (str.to_re "F") (re.union (str.to_re "D") (str.to_re "E") (str.to_re "H") (str.to_re "R") (str.to_re "Y"))) (re.++ (str.to_re "G") (re.union (str.to_re "H") (str.to_re "K") (str.to_re "N") (str.to_re "R") (str.to_re "U") (str.to_re "W") (str.to_re "Y"))) (re.++ (str.to_re "H") (re.union (str.to_re "H") (str.to_re "L"))) (re.++ (str.to_re "I") (re.union (str.to_re "E") (str.to_re "H"))) (str.to_re "INS") (str.to_re "KY") (re.++ (str.to_re "L") (re.union (str.to_re "A") (str.to_re "H") (str.to_re "I") (str.to_re "K") (str.to_re "L") (str.to_re "N") (str.to_re "O") (str.to_re "R") (str.to_re "T") (str.to_re "Y"))) (re.++ (str.to_re "M") (re.union (str.to_re "E") (str.to_re "H") (str.to_re "L") (str.to_re "N") (str.to_re "R") (str.to_re "T"))) (re.++ (str.to_re "N") (re.union (str.to_re "E") (str.to_re "N") (str.to_re "T"))) (str.to_re "OB") (re.++ (str.to_re "P") (re.union (str.to_re "D") (str.to_re "E") (str.to_re "H") (str.to_re "L") (str.to_re "N") (str.to_re "T") (str.to_re "W") (str.to_re "Z"))) (re.++ (str.to_re "R") (re.union (str.to_re "N") (str.to_re "O") (str.to_re "R") (str.to_re "X") (str.to_re "Y"))) (re.++ (str.to_re "S") (re.union (str.to_re "A") (str.to_re "C") (str.to_re "D") (str.to_re "E") (str.to_re "H") (str.to_re "M") (str.to_re "N") (str.to_re "O") (str.to_re "R") (str.to_re "S") (str.to_re "T") (str.to_re "U") (str.to_re "Y"))) (str.to_re "SSS") (re.++ (str.to_re "T") (re.union (str.to_re "H") (str.to_re "N") (str.to_re "O") (str.to_re "T"))) (str.to_re "UL") (re.++ (str.to_re "W") (re.union (str.to_re "A") (str.to_re "D") (str.to_re "H") (str.to_re "I") (str.to_re "K") (str.to_re "N") (str.to_re "O") (str.to_re "T") (str.to_re "Y"))) (str.to_re "YH") (re.range "A" "H") (re.range "J" "P") (str.to_re "R") (str.to_re "T") (str.to_re "T") (str.to_re "W")) (re.range "1" "9") ((_ re.loop 0 2) (re.range "0" "9"))) (re.++ (str.to_re "\u{a}") (re.range "1" "9") ((_ re.loop 0 2) (re.range "0" "9")) (re.union (re.++ (str.to_re "A") (re.union (str.to_re "B") (str.to_re "D") (str.to_re "H") (str.to_re "R"))) (str.to_re "BCK") (re.++ (str.to_re "B") (re.union (str.to_re "A") (str.to_re "D") (str.to_re "E") (str.to_re "F") (str.to_re "H") (re.range "K" "O") (str.to_re "R") (str.to_re "S") (str.to_re "U") (str.to_re "W"))) (str.to_re "BRD") (re.++ (str.to_re "C") (re.union (str.to_re "A") (str.to_re "E") (str.to_re "F") (str.to_re "H") (str.to_re "K") (str.to_re "L") (str.to_re "N") (str.to_re "O") (str.to_re "S") (str.to_re "T") (str.to_re "Y"))) (re.++ (str.to_re "D") (re.union (str.to_re "A") (str.to_re "E") (str.to_re "H") (str.to_re "K") (str.to_re "O") (str.to_re "R") (str.to_re "S"))) (re.++ (str.to_re "F") (re.union (str.to_re "D") (str.to_re "E") (str.to_re "H") (str.to_re "R") (str.to_re "Y"))) (re.++ (str.to_re "G") (re.union (str.to_re "H") (str.to_re "K") (str.to_re "N") (str.to_re "R") (str.to_re "U") (str.to_re "W") (str.to_re "Y"))) (re.++ (str.to_re "H") (re.union (str.to_re "H") (str.to_re "L"))) (re.++ (str.to_re "I") (re.union (str.to_re "E") (str.to_re "H"))) (str.to_re "INS") (str.to_re "KY") (re.++ (str.to_re "L") (re.union (str.to_re "A") (str.to_re "H") (str.to_re "I") (str.to_re "K") (str.to_re "L") (str.to_re "N") (str.to_re "O") (str.to_re "R") (str.to_re "T") (str.to_re "Y"))) (re.++ (str.to_re "M") (re.union (str.to_re "E") (str.to_re "H") (str.to_re "L") (str.to_re "N") (str.to_re "R") (str.to_re "T"))) (re.++ (str.to_re "N") (re.union (str.to_re "E") (str.to_re "N") (str.to_re "T"))) (str.to_re "OB") (re.++ (str.to_re "P") (re.union (str.to_re "D") (str.to_re "E") (str.to_re "H") (str.to_re "L") (str.to_re "N") (str.to_re "T") (str.to_re "W") (str.to_re "Z"))) (re.++ (str.to_re "R") (re.union (str.to_re "N") (str.to_re "O") (str.to_re "R") (str.to_re "X") (str.to_re "Y"))) (re.++ (str.to_re "S") (re.union (str.to_re "A") (str.to_re "C") (str.to_re "D") (str.to_re "E") (str.to_re "H") (str.to_re "M") (str.to_re "N") (str.to_re "O") (str.to_re "R") (str.to_re "S") (str.to_re "T") (str.to_re "U") (str.to_re "Y"))) (str.to_re "SSS") (re.++ (str.to_re "T") (re.union (str.to_re "H") (str.to_re "N") (str.to_re "O") (str.to_re "T"))) (str.to_re "UL") (re.++ (str.to_re "W") (re.union (str.to_re "A") (str.to_re "D") (str.to_re "H") (str.to_re "I") (str.to_re "K") (str.to_re "N") (str.to_re "O") (str.to_re "T") (str.to_re "Y"))) (str.to_re "YH") (re.range "A" "H") (re.range "J" "P") (str.to_re "R") (str.to_re "S") (str.to_re "T") (str.to_re "W")))))) (re.inter (re.comp (re.union (re.++ (re.union (re.++ (str.to_re "A") (re.union (str.to_re "B") (str.to_re "D") (str.to_re "H") (str.to_re "R"))) (str.to_re "BCK") (re.++ (str.to_re "B") (re.union (str.to_re "A") (str.to_re "D") (str.to_re "E") (str.to_re "F") (str.to_re "H") (re.range "K" "O") (str.to_re "R") (str.to_re "S") (str.to_re "U") (str.to_re "W"))) (str.to_re "BRD") (re.++ (str.to_re "C") (re.union (str.to_re "A") (str.to_re "E") (str.to_re "F") (str.to_re "H") (str.to_re "K") (str.to_re "L") (str.to_re "N") (str.to_re "O") (str.to_re "S") (str.to_re "T") (str.to_re "Y"))) (re.++ (str.to_re "D") (re.union (str.to_re "A") (str.to_re "E") (str.to_re "H") (str.to_re "K") (str.to_re "O") (str.to_re "R") (str.to_re "S"))) (re.++ (str.to_re "F") (re.union (str.to_re "D") (str.to_re "E") (str.to_re "H") (str.to_re "R") (str.to_re "Y"))) (re.++ (str.to_re "G") (re.union (str.to_re "H") (str.to_re "K") (str.to_re "N") (str.to_re "R") (str.to_re "U") (str.to_re "W") (str.to_re "Y"))) (re.++ (str.to_re "H") (re.union (str.to_re "H") (str.to_re "L"))) (re.++ (str.to_re "I") (re.union (str.to_re "E") (str.to_re "H"))) (str.to_re "INS") (str.to_re "KY") (re.++ (str.to_re "L") (re.union (str.to_re "A") (str.to_re "H") (str.to_re "I") (str.to_re "K") (str.to_re "L") (str.to_re "N") (str.to_re "O") (str.to_re "R") (str.to_re "T") (str.to_re "Y"))) (re.++ (str.to_re "M") (re.union (str.to_re "E") (str.to_re "H") (str.to_re "L") (str.to_re "N") (str.to_re "R") (str.to_re "T"))) (re.++ (str.to_re "N") (re.union (str.to_re "E") (str.to_re "N") (str.to_re "T"))) (str.to_re "OB") (re.++ (str.to_re "P") (re.union (str.to_re "D") (str.to_re "E") (str.to_re "H") (str.to_re "L") (str.to_re "N") (str.to_re "T") (str.to_re "W") (str.to_re "Z"))) (re.++ (str.to_re "R") (re.union (str.to_re "N") (str.to_re "O") (str.to_re "R") (str.to_re "X") (str.to_re "Y"))) (re.++ (str.to_re "S") (re.union (str.to_re "A") (str.to_re "C") (str.to_re "D") (str.to_re "E") (str.to_re "H") (str.to_re "M") (str.to_re "N") (str.to_re "O") (str.to_re "R") (str.to_re "S") (str.to_re "T") (str.to_re "U") (str.to_re "Y"))) (str.to_re "SSS") (re.++ (str.to_re "T") (re.union (str.to_re "H") (str.to_re "N") (str.to_re "O") (str.to_re "T"))) (str.to_re "UL") (re.++ (str.to_re "W") (re.union (str.to_re "A") (str.to_re "D") (str.to_re "H") (str.to_re "I") (str.to_re "K") (str.to_re "N") (str.to_re "O") (str.to_re "T") (str.to_re "Y"))) (str.to_re "YH") (re.range "A" "H") (re.range "J" "P") (str.to_re "R") (str.to_re "S") (str.to_re "T") (str.to_re "W")) (re.range "1" "9") ((_ re.loop 0 2) (re.range "0" "9"))) (re.++ (str.to_re "\u{a}") (re.range "1" "9") ((_ re.loop 0 2) (re.range "0" "9")) (re.union (re.++ (str.to_re "A") (re.union (str.to_re "B") (str.to_re "D") (str.to_re "H") (str.to_re "R"))) (str.to_re "BCK") (re.++ (str.to_re "B") (re.union (str.to_re "A") (str.to_re "D") (str.to_re "E") (str.to_re "F") (str.to_re "H") (re.range "K" "O") (str.to_re "R") (str.to_re "S") (str.to_re "U") (str.to_re "W"))) (str.to_re "BRD") (re.++ (str.to_re "C") (re.union (str.to_re "A") (str.to_re "E") (str.to_re "F") (str.to_re "H") (str.to_re "K") (str.to_re "L") (str.to_re "N") (str.to_re "O") (str.to_re "S") (str.to_re "T") (str.to_re "Y"))) (re.++ (str.to_re "D") (re.union (str.to_re "A") (str.to_re "E") (str.to_re "H") (str.to_re "K") (str.to_re "O") (str.to_re "R") (str.to_re "S"))) (re.++ (str.to_re "F") (re.union (str.to_re "D") (str.to_re "E") (str.to_re "H") (str.to_re "R") (str.to_re "Y"))) (re.++ (str.to_re "G") (re.union (str.to_re "H") (str.to_re "K") (str.to_re "N") (str.to_re "R") (str.to_re "U") (str.to_re "W") (str.to_re "Y"))) (re.++ (str.to_re "H") (re.union (str.to_re "H") (str.to_re "L"))) (re.++ (str.to_re "I") (re.union (str.to_re "E") (str.to_re "H"))) (str.to_re "INS") (str.to_re "KY") (re.++ (str.to_re "L") (re.union (str.to_re "A") (str.to_re "H") (str.to_re "I") (str.to_re "K") (str.to_re "L") (str.to_re "N") (str.to_re "O") (str.to_re "R") (str.to_re "T") (str.to_re "Y"))) (re.++ (str.to_re "M") (re.union (str.to_re "E") (str.to_re "H") (str.to_re "L") (str.to_re "N") (str.to_re "R") (str.to_re "T"))) (re.++ (str.to_re "N") (re.union (str.to_re "E") (str.to_re "N") (str.to_re "T"))) (str.to_re "OB") (re.++ (str.to_re "P") (re.union (str.to_re "D") (str.to_re "E") (str.to_re "H") (str.to_re "L") (str.to_re "N") (str.to_re "T") (str.to_re "W") (str.to_re "Z"))) (re.++ (str.to_re "R") (re.union (str.to_re "N") (str.to_re "O") (str.to_re "R") (str.to_re "X") (str.to_re "Y"))) (re.++ (str.to_re "S") (re.union (str.to_re "A") (str.to_re "C") (str.to_re "D") (str.to_re "E") (str.to_re "H") (str.to_re "M") (str.to_re "N") (str.to_re "O") (str.to_re "R") (str.to_re "S") (str.to_re "T") (str.to_re "U") (str.to_re "Y"))) (str.to_re "SSS") (re.++ (str.to_re "T") (re.union (str.to_re "H") (str.to_re "N") (str.to_re "O") (str.to_re "T"))) (str.to_re "UL") (re.++ (str.to_re "W") (re.union (str.to_re "A") (str.to_re "D") (str.to_re "H") (str.to_re "I") (str.to_re "K") (str.to_re "N") (str.to_re "O") (str.to_re "T") (str.to_re "Y"))) (str.to_re "YH") (re.range "A" "H") (re.range "J" "P") (str.to_re "R") (str.to_re "S") (str.to_re "T") (str.to_re "W"))))) (re.union (re.++ (re.union (re.++ (str.to_re "A") (re.union (str.to_re "B") (str.to_re "D") (str.to_re "H") (str.to_re "R"))) (str.to_re "BCK") (re.++ (str.to_re "B") (re.union (str.to_re "A") (str.to_re "D") (str.to_re "E") (str.to_re "F") (str.to_re "H") (re.range "K" "O") (str.to_re "R") (str.to_re "S") (str.to_re "U") (str.to_re "W"))) (str.to_re "BRD") (re.++ (str.to_re "C") (re.union (str.to_re "A") (str.to_re "E") (str.to_re "F") (str.to_re "H") (str.to_re "K") (str.to_re "L") (str.to_re "N") (str.to_re "O") (str.to_re "S") (str.to_re "T") (str.to_re "Y"))) (re.++ (str.to_re "D") (re.union (str.to_re "A") (str.to_re "E") (str.to_re "H") (str.to_re "K") (str.to_re "O") (str.to_re "R") (str.to_re "S"))) (re.++ (str.to_re "F") (re.union (str.to_re "D") (str.to_re "E") (str.to_re "H") (str.to_re "R") (str.to_re "Y"))) (re.++ (str.to_re "G") (re.union (str.to_re "H") (str.to_re "K") (str.to_re "N") (str.to_re "R") (str.to_re "U") (str.to_re "W") (str.to_re "Y"))) (re.++ (str.to_re "H") (re.union (str.to_re "H") (str.to_re "L"))) (re.++ (str.to_re "I") (re.union (str.to_re "E") (str.to_re "H"))) (str.to_re "INS") (str.to_re "KY") (re.++ (str.to_re "L") (re.union (str.to_re "A") (str.to_re "H") (str.to_re "I") (str.to_re "K") (str.to_re "L") (str.to_re "N") (str.to_re "O") (str.to_re "R") (str.to_re "T") (str.to_re "Y"))) (re.++ (str.to_re "M") (re.union (str.to_re "E") (str.to_re "H") (str.to_re "L") (str.to_re "N") (str.to_re "R") (str.to_re "T"))) (re.++ (str.to_re "N") (re.union (str.to_re "E") (str.to_re "N") (str.to_re "T"))) (str.to_re "OB") (re.++ (str.to_re "P") (re.union (str.to_re "D") (str.to_re "E") (str.to_re "H") (str.to_re "L") (str.to_re "N") (str.to_re "T") (str.to_re "W") (str.to_re "Z"))) (re.++ (str.to_re "R") (re.union (str.to_re "N") (str.to_re "O") (str.to_re "R") (str.to_re "X") (str.to_re "Y"))) (re.++ (str.to_re "S") (re.union (str.to_re "A") (str.to_re "C") (str.to_re "D") (str.to_re "E") (str.to_re "H") (str.to_re "M") (str.to_re "N") (str.to_re "O") (str.to_re "R") (str.to_re "S") (str.to_re "T") (str.to_re "U") (str.to_re "Y"))) (str.to_re "SSS") (re.++ (str.to_re "T") (re.union (str.to_re "H") (str.to_re "N") (str.to_re "O") (str.to_re "T"))) (str.to_re "UL") (re.++ (str.to_re "W") (re.union (str.to_re "A") (str.to_re "D") (str.to_re "H") (str.to_re "I") (str.to_re "K") (str.to_re "N") (str.to_re "O") (str.to_re "T") (str.to_re "Y"))) (str.to_re "YH") (re.range "A" "H") (re.range "J" "P") (str.to_re "R") (str.to_re "T") (str.to_re "T") (str.to_re "W")) (re.range "1" "9") ((_ re.loop 0 2) (re.range "0" "9"))) (re.++ (str.to_re "\u{a}") (re.range "1" "9") ((_ re.loop 0 2) (re.range "0" "9")) (re.union (re.++ (str.to_re "A") (re.union (str.to_re "B") (str.to_re "D") (str.to_re "H") (str.to_re "R"))) (str.to_re "BCK") (re.++ (str.to_re "B") (re.union (str.to_re "A") (str.to_re "D") (str.to_re "E") (str.to_re "F") (str.to_re "H") (re.range "K" "O") (str.to_re "R") (str.to_re "S") (str.to_re "U") (str.to_re "W"))) (str.to_re "BRD") (re.++ (str.to_re "C") (re.union (str.to_re "A") (str.to_re "E") (str.to_re "F") (str.to_re "H") (str.to_re "K") (str.to_re "L") (str.to_re "N") (str.to_re "O") (str.to_re "S") (str.to_re "T") (str.to_re "Y"))) (re.++ (str.to_re "D") (re.union (str.to_re "A") (str.to_re "E") (str.to_re "H") (str.to_re "K") (str.to_re "O") (str.to_re "R") (str.to_re "S"))) (re.++ (str.to_re "F") (re.union (str.to_re "D") (str.to_re "E") (str.to_re "H") (str.to_re "R") (str.to_re "Y"))) (re.++ (str.to_re "G") (re.union (str.to_re "H") (str.to_re "K") (str.to_re "N") (str.to_re "R") (str.to_re "U") (str.to_re "W") (str.to_re "Y"))) (re.++ (str.to_re "H") (re.union (str.to_re "H") (str.to_re "L"))) (re.++ (str.to_re "I") (re.union (str.to_re "E") (str.to_re "H"))) (str.to_re "INS") (str.to_re "KY") (re.++ (str.to_re "L") (re.union (str.to_re "A") (str.to_re "H") (str.to_re "I") (str.to_re "K") (str.to_re "L") (str.to_re "N") (str.to_re "O") (str.to_re "R") (str.to_re "T") (str.to_re "Y"))) (re.++ (str.to_re "M") (re.union (str.to_re "E") (str.to_re "H") (str.to_re "L") (str.to_re "N") (str.to_re "R") (str.to_re "T"))) (re.++ (str.to_re "N") (re.union (str.to_re "E") (str.to_re "N") (str.to_re "T"))) (str.to_re "OB") (re.++ (str.to_re "P") (re.union (str.to_re "D") (str.to_re "E") (str.to_re "H") (str.to_re "L") (str.to_re "N") (str.to_re "T") (str.to_re "W") (str.to_re "Z"))) (re.++ (str.to_re "R") (re.union (str.to_re "N") (str.to_re "O") (str.to_re "R") (str.to_re "X") (str.to_re "Y"))) (re.++ (str.to_re "S") (re.union (str.to_re "A") (str.to_re "C") (str.to_re "D") (str.to_re "E") (str.to_re "H") (str.to_re "M") (str.to_re "N") (str.to_re "O") (str.to_re "R") (str.to_re "S") (str.to_re "T") (str.to_re "U") (str.to_re "Y"))) (str.to_re "SSS") (re.++ (str.to_re "T") (re.union (str.to_re "H") (str.to_re "N") (str.to_re "O") (str.to_re "T"))) (str.to_re "UL") (re.++ (str.to_re "W") (re.union (str.to_re "A") (str.to_re "D") (str.to_re "H") (str.to_re "I") (str.to_re "K") (str.to_re "N") (str.to_re "O") (str.to_re "T") (str.to_re "Y"))) (str.to_re "YH") (re.range "A" "H") (re.range "J" "P") (str.to_re "R") (str.to_re "S") (str.to_re "T") (str.to_re "W"))))))))

(check-sat)
(exit)
